<instance format="XCSP3" type="COP">
  <variables>
    <array id="x" size="[30]"> 0 1 </array>
  </variables>
  <constraints>
    <sum>
      <list> x[] </list>
      <coeffs> 12 15 11 20 6 5 19 25 1 10 1 13 9 12 21 13 12 14 8 5 18 25 9 2 19 5 15 1 2 12 </coeffs>
      <condition> (le,100) </condition>
    </sum>
  </constraints>
  <objectives>
    <maximize type="sum">
      <list> x[] </list>
      <coeffs> 24 74 80 92 36 93 19 7 47 35 26 81 74 48 34 96 13 90 77 53 13 46 95 71 45 53 9 66 27 58 </coeffs>
    </maximize>
  </objectives>
</instance>
